outputs/case_341.model.txt
internal_operation_executed = True
internal_control_executed = True
internal_handling_established = True
internal_handling_executed = True
penalty = False
internal_control_compliance = True
internal_operation_established = True
internal_control_established = True
internal_handling_compliance = True
internal_operation_compliance = True